c --- [ banner ] -------------------------------------------------------------
c 
c CaDiCaL Radically Simplified CDCL SAT Solver
c Copyright (c) 2016-2021 A. Biere, M. Fleury, N. Froleyks
c 
c Version 1.5.2 ca9bff05c11bde5eae4912f9932871d1527e61d8
c g++ (GCC) 9.3.0 -Wall -Wextra -O3 -DNDEBUG
c Sun May 1 02:23:23 EDT 2022 Linux gra-login1 3.10.0-1160.59.1.el7.x86_64 x86_64
c 
c --- [ limit ] --------------------------------------------------------------
c 
c setting conflict limit to 200000 conflicts (due to '200000')
c 
c --- [ parsing input ] ------------------------------------------------------
c 
c reading DIMACS file from '12.cubes1538.adj'
c opening file to read '12.cubes1538.adj'
c found 'p cnf 5320 924210' header
c parsed 924210 clauses in 8.69 seconds process time
c closing file '12.cubes1538.adj'
c after reading 686668114 bytes 654.9 MB
c 
c --- [ options ] ------------------------------------------------------------
c 
c all options are set to their default value
c 
c --- [ solving ] ------------------------------------------------------------
c 
c time measured in process time since initialization
c 
c  seconds   reductions  redundant  irredundant
c          MB    restarts       trail      variables
c           level   conflicts       glue        remaining
c 
c *  8.69 687  0 0   0    0    0  0% 0 923580 4191 79%
c {  9.29 712  0 0   0    0    0  0% 0 923580 4191 79%
c i 10.71 747 48 0   4   83   49 39% 4 923580 4157 78%
c i 10.71 747 47 0   4   84   49 39% 4 923580 4136 78%
c i 11.13 750 40 0  10  113   64 38% 6 923580 4135 78%
c i 11.56 758 50 0  17  137   84 40% 10 923580 4133 78%
c i 12.09 762 46 0  37  202  103 39% 12 923580 4132 78%
c i 12.14 763 47 0  38  204  104 39% 12 923580 4121 77%
c i 12.75 767 59 0  49  256  146 42% 23 923580 4105 77%
c i 12.89 768 62 0  52  265  153 43% 24 923580 4102 77%
c i 12.91 768 64 0  52  273  159 43% 27 923580 4101 77%
c i 13.29 770 75 0  57  293  177 44% 30 923580 4087 77%
c - 15.21 764 78 1  59  300  159 44% 32 332751 4087 77%
c i 15.87 741 80 1  71  349  198 44% 31 332751 4086 77%
c i 15.92 741 80 1  73  355  203 44% 31 332751 4085 77%
c i 16.06 742 81 1  74  376  219 45% 31 332751 4084 77%
c i 16.23 742 75 1  75  448  272 45% 30 332751 4083 77%
c i 16.38 742 72 1  75  511  322 46% 30 332751 4082 77%
c i 16.45 742 69 1  75  546  351 47% 29 332751 4081 77%
c i 17.02 742 69 1  83  636  431 47% 30 332751 4080 77%
c 
c  seconds   reductions  redundant   irredundant
c          MB    restarts       trail       variables
c           level   conflicts       glue         remaining
c 
c i 17.04 742 69 1  83  637  431 47% 30 332751 4079 77%
c i 17.05 742 69 1  83  642  435 47% 30 332751 4078 77%
c i 17.17 742 69 1  83  652  442 47% 30 332751 4077 77%
c i 17.28 743 70 1  84  659  448 47% 31 332751 4076 77%
c i 17.34 743 71 1  85  664  452 47% 31 332751 4075 77%
c i 18.11 744 75 1  95  730  509 47% 31 332751 4074 77%
c i 18.42 744 73 1 100  787  558 47% 30 332751 4073 77%
c i 18.43 744 73 1 100  790  560 47% 30 332751 4072 77%
c i 18.45 744 73 1 100  797  566 47% 30 332751 4071 77%
c i 18.48 744 72 1 100  810  577 47% 30 332751 4070 77%
c i 18.49 744 72 1 100  812  578 47% 30 332751 4069 76%
c i 18.50 744 72 1 100  821  586 47% 30 332751 4068 76%
c i 18.54 744 72 1 100  834  598 47% 30 332751 4067 76%
c i 18.54 744 71 1 100  843  606 47% 30 332751 4066 76%
c i 18.61 744 72 1 101  866  627 47% 30 332751 4065 76%
c i 18.63 744 72 1 102  871  631 47% 30 332751 4064 76%
c i 19.17 745 75 1 107  904  661 47% 31 332751 4063 76%
c i 19.34 744 75 1 111  918  672 47% 31 332751 4061 76%
c i 19.49 744 76 1 112  926  678 47% 31 332751 4060 76%
c i 19.49 744 76 1 112  927  678 47% 31 332751 4059 76%
c 
c  seconds   reductions  redundant   irredundant
c          MB    restarts       trail       variables
c           level   conflicts       glue         remaining
c 
c i 19.52 744 76 1 113  931  681 47% 31 332751 4058 76%
c i 19.87 745 75 1 116  986  730 48% 31 332751 4057 76%
c } 19.93 745 75 1 116 1000  743 48% 31 332751 4057 76%
c [ 19.93 745  0 1 116 1000  743  0% 0 332751 4057 76%
c O 19.94 745 43 1 116 1003  746 45% 20 332751 4057 76%
c i 20.07 745  9 1 116 1028  755 34% 6 332751 4035 76%
c i 20.47 745 14 1 116 1107  796 43% 10 332751 4034 76%
c i 20.54 745 15 1 116 1141  820 47% 11 332751 4033 76%
c - 21.17 845 16 2 116 1215  763 51% 13 332315 4033 76%
c i 21.35 845 17 2 116 1250  788 51% 14 332315 4032 76%
c i 21.43 845 18 2 116 1300  815 52% 15 332315 4031 76%
c i 21.59 845 18 2 116 1597  967 54% 16 332315 4030 76%
c i 21.61 845 19 2 116 1621  981 54% 16 332315 4029 76%
c i 21.67 845 19 2 116 1746 1043 54% 17 332315 4028 76%
c i 21.69 845 19 2 116 1776 1066 54% 17 332315 4027 76%
c i 21.72 845 19 2 116 1833 1104 54% 17 332315 4026 76%
c i 21.82 845 19 2 116 1941 1189 55% 17 332315 4025 76%
c i 21.88 845 20 2 117 2043 1274 55% 17 332315 4024 76%
c i 22.26 845 26 2 117 2430 1569 55% 21 332315 4023 76%
c i 22.37 845 28 2 117 2568 1681 55% 22 332315 4022 76%
c 
c  seconds   reductions  redundant   irredundant
c          MB    restarts       trail       variables
c           level   conflicts       glue         remaining
c 
c - 22.72 842 28 3 117 2584 1335 55% 22 332282 4022 76%
c i 22.98 842 28 3 117 2589 1338 39% 22 332282 4021 76%
c i 23.30 842 29 3 117 2976 1624 41% 23 332282 4020 76%
c ] 23.32 842 29 3 117 3001 1633 41% 23 332282 4020 76%
c { 23.32 842 75 3 117 3001 1633 63% 31 332282 4020 76%
c F 23.32 842 74 3 117 3009 1638 63% 30 332282 4020 76%
c i 24.97 842 72 3 155 3407 1936 54% 31 332282 4019 76%
c i 25.55 842 73 3 172 3483 1998 53% 31 332282 4018 76%
c i 25.97 842 72 3 199 3626 2105 51% 32 332282 4017 76%
c i 26.06 842 72 3 204 3658 2131 51% 32 332282 4016 75%
c i 26.12 842 71 3 204 3706 2168 51% 32 332282 4015 75%
c i 26.25 842 71 3 204 3743 2196 50% 32 332282 4014 75%
c i 26.48 842 68 3 204 3879 2267 48% 31 332282 4013 75%
c i 26.65 842 67 3 209 3924 2305 48% 31 332282 4012 75%
c i 26.93 842 64 3 209 4163 2486 47% 30 332282 4011 75%
c i 27.06 842 62 3 209 4290 2595 47% 29 332282 4010 75%
c i 27.19 842 61 3 209 4389 2673 46% 29 332282 4009 75%
c - 27.54 839 61 4 209 4409 1982 46% 29 332243 4009 75%
c d 28.51 839 55 4 221 5002 2463 45% 28 324436 3994 75%
c 2 28.60 839 55 4 221 5002 4289 45% 28 324358 3993 75%
c 
c  seconds   reductions   redundant   irredundant
c          MB    restarts        trail       variables
c           level   conflicts        glue         remaining
c 
c p 31.52 839 55 4 221 5002 10726 45% 28 324358 3908 73%
c d 32.05 839 55 4 221 5002 9398 45% 28 298563 3904 73%
c # 32.82 839 48 4 222 6011 10128 44% 26 298563 3904 73%
c - 33.41 782 43 5 222 6691 2811 43% 24 298563 3904 73%
c } 33.53 782 41 5 222 7001 3016 43% 23 298563 3904 73%
c [ 33.53 782 29 5 222 7001 3016 41% 23 298563 3904 73%
c ] 33.68 782 27 5 223 7387 3293 41% 22 298563 3904 73%
c 1 33.68 782 27 5 223 7387 3293 41% 22 298563 3904 73%
c 
c --- [ writing output ] -----------------------------------------------------
c 
c writing simplified CNF to DIMACS file 'simp/12.cubes1538.adj.simp1'
c * 33.68 782 27 5 223 7387 3293 41% 22 298563 3904 73%
c opening file to write 'simp/12.cubes1538.adj.simp1'
c writing 'p cnf 5320 298563' header
c closing file 'simp/12.cubes1538.adj.simp1'
c after writing 127293309 bytes 121.4 MB
c wrote 298563 clauses in 0.96 seconds process time
c 
c --- [ writing extension ] --------------------------------------------------
c 
c writing extension stack to 'simp/12.cubes1538.adj.ext1'
c opening file to write 'simp/12.cubes1538.adj.ext1'
c closing file 'simp/12.cubes1538.adj.ext1'
c after writing 20807 bytes 0.0 MB
c wrote 1435 witnesses in 0.00 seconds process time
c 
c --- [ result ] -------------------------------------------------------------
c 
s SATISFIABLE
c 
c --- [ run-time profiling ] -------------------------------------------------
c 
c process time taken by individual solving procedures
c (percentage relative to process time for solving)
c 
c        20.92   83.74% search
c        16.80   67.24% unstable
c         8.69   34.80% parse
c         4.06   16.26% simplify
c         3.53   14.13% stable
c         2.92   11.69% probe
c         0.59    2.37% lucky
c         0.06    0.25% ternary
c   =================================
c        24.98   72.13% solve
c 
c last line shows process time for solving
c (percentage relative to total process time)
c 
c --- [ statistics ] ---------------------------------------------------------
c 
c chronological:              1752        23.72 %  of conflicts
c conflicts:                  7387       295.68    per second
c decisions:                 33839      1354.49    per second
c fixed:                      1397        26.26 %  of all variables
c learned:                    7177        97.16 %  per conflict
c learned_lits:            1450791       100.00 %  learned literals
c minimized:                     0         0.00 %  learned literals
c shrunken:                 733330        50.55 %  learned literals
c minishrunken:             168723        11.63 %  learned literals
c propagations:            1808677         0.07 M  per second
c reduced:                    2168        29.35 %  per conflict
c rephased:                      3      2462.33    interval
c restarts:                    223        33.13    interval
c stabilizing:                   2        32.31 %  of conflicts
c substituted:                  19         0.36 %  of all variables
c subsumed:                   1835         0.09 %  of all clauses
c ternary:                    1826         0.40 %  of resolved
c weakened:                     38         2.00    average size
c 
c seconds are measured in process time for solving
c 
c --- [ resources ] ----------------------------------------------------------
c 
c total process time since initialization:        34.64    seconds
c total real time since initialization:           34.69    seconds
c maximum resident set size of process:          983.79    MB
c 
c --- [ shutting down ] ------------------------------------------------------
c 
c exit 10
c --- [ banner ] -------------------------------------------------------------
c 
c CaDiCaL Radically Simplified CDCL SAT Solver
c Copyright (c) 2016-2021 A. Biere, M. Fleury, N. Froleyks
c 
c Version 1.5.2 ca9bff05c11bde5eae4912f9932871d1527e61d8
c g++ (GCC) 9.3.0 -Wall -Wextra -O3 -DNDEBUG
c Sun May 1 02:23:23 EDT 2022 Linux gra-login1 3.10.0-1160.59.1.el7.x86_64 x86_64
c 
c --- [ limit ] --------------------------------------------------------------
c 
c setting conflict limit to 200000 conflicts (due to '200000')
c 
c --- [ parsing input ] ------------------------------------------------------
c 
c reading DIMACS file from 'simp/12.cubes1538.adj.simp1'
c opening file to read 'simp/12.cubes1538.adj.simp1'
c found 'p cnf 5320 298563' header
c parsed 298563 clauses in 1.60 seconds process time
c closing file 'simp/12.cubes1538.adj.simp1'
c after reading 127293309 bytes 121.4 MB
c 
c --- [ options ] ------------------------------------------------------------
c 
c all options are set to their default value
c 
c --- [ solving ] ------------------------------------------------------------
c 
c time measured in process time since initialization
c 
c  seconds   reductions  redundant  irredundant
c          MB    restarts       trail      variables
c           level   conflicts       glue        remaining
c 
c *  1.60 134  0 0   0    0    0  0% 0 298563 3897 73%
c {  1.72 145  0 0   0    0    0  0% 0 298563 3897 73%
c -  3.34 173 67 1  43  300  221 21% 17 298563 3897 73%
c }  6.66 184 72 1 138 1000  720 21% 23 298563 3897 73%
c [  6.66 184  0 1 138 1000  720  0% 0 298563 3897 73%
c O  6.69 184 77 1 138 1002  722 12% 61 298563 3897 73%
c -  7.18 300 17 2 138 1185  799 29% 13 298563 3897 73%
c -  7.88 300 17 3 139 2512 1530 30% 14 298563 3897 73%
c ]  8.07 300 16 3 139 3000 1930 30% 13 298563 3897 73%
c {  8.07 300 72 3 139 3000 1930 21% 23 298563 3897 73%
c F  8.31 287 72 3 141 3006 1936 38% 23 298563 3897 73%
c - 11.19 287 54 4 223 4282 2104 35% 23 298563 3897 73%
c 2 12.19 287 50 4 245 5000 4262 36% 23 298548 3897 73%
c p 13.42 287 50 4 245 5000 9268 36% 23 298548 3894 73%
c # 14.57 287 46 4 303 6009 10035 36% 22 298548 3894 73%
c - 15.34 277 43 5 303 6497 2869 37% 22 298539 3894 73%
c } 15.69 277 41 5 305 7001 3247 37% 21 298539 3894 73%
c [ 15.69 277 16 5 305 7001 3247 41% 13 298539 3894 73%
c - 16.83 277 20 6 306 9154 3103 40% 17 298539 3894 73%
c I 17.42 277 22 6 307 10010 3645 40% 19 298539 3894 73%
c 
c  seconds   reductions   redundant   irredundant
c          MB    restarts        trail       variables
c           level    conflicts       glue         remaining
c 
c - 19.00 277 26 7 309 12254 3516 40% 22 298539 3894 73%
c s 19.29 277 26 7 309 12520 3604 40% 22 296908 3894 73%
c v 22.53 277 26 7 309 12520 3604 40% 22 296770 3894 73%
c w 22.62 277 26 7 309 12520 3601 40% 22 296770 3894 73%
c t 22.63 277 26 7 309 12520 3600 40% 22 296743 3894 73%
c e 23.63 283 26 7 309 12520 3425 40% 22 290963 1028 19%
c s 23.74 283 26 7 309 12520 3425 40% 22 290710 1028 19%
c ] 26.02 282 28 7 310 15003 4932 69% 24 290710 1028 19%
c { 26.02 282 41 7 310 15003 4932 141% 21 290710 1028 19%
c 3 26.05 282 41 7 310 15003 5459 141% 21 290709 1028 19%
c 2 26.10 282 41 7 310 15003 5482 141% 21 290708 1028 19%
c p 26.47 282 41 7 310 15003 7142 141% 21 290708 1028 19%
c B 26.60 282 41 7 310 15013 7151 141% 21 290708 1028 19%
c - 27.37 283 40 8 345 15798 4092 128% 21 290708 1028 19%
c - 32.85 283 38 9 666 19751 4919 98% 21 290708 1028 19%
c W 34.31 283 37 9 719 21014 5823 94% 21 290708 1028 19%
c - 39.19 283 36 10 1053 24142 5527 86% 21 290708 1028 19%
c F 43.89 283 36 10 1356 28015 8468 81% 21 290708 1028 19%
c - 46.38 283 37 11 1479 28972 6638 80% 22 290708 1028 19%
c p 47.96 283 36 11 1479 30007 10914 79% 21 290708 1021 19%
c 
c  seconds   reductions      redundant   irredundant
c          MB     restarts          trail       variables
c           level      conflicts        glue         remaining
c 
c d 48.27 283 36 11 1479 30007 10793 79% 21 290319 1020 19%
c } 50.08 283 36 11 1596 31003 11540 79% 22 290319 1020 19%
c [ 50.08 283 28 11 1596 31003 11540 69% 24 290319 1020 19%
c - 51.26 282 27 12 1597 34240 7606 69% 23 290319 1020 19%
c B 52.05 282 27 12 1599 36018 8786 69% 23 290319 1020 19%
c - 53.91 282 26 13 1602 39947 7582 69% 22 290319 1020 19%
c W 56.09 282 27 13 1603 45020 10863 70% 23 290319 1020 19%
c s 56.30 282 27 13 1603 45095 10904 70% 23 289714 1020 19%
c v 58.73 282 27 13 1603 45095 10904 70% 23 289637 1020 19%
c w 58.83 282 27 13 1603 45095 10903 70% 23 289637 1020 19%
c t 58.83 282 27 13 1603 45095 10900 70% 23 289636 1020 19%
c e 59.79 294 27 13 1603 45095 10858 70% 23 289552 988 19%
c s 59.94 282 27 13 1603 45095 10857 70% 23 289284 988 19%
c - 61.45 282 27 14 1604 46091 7827 70% 23 289284 988 19%
c p 63.25 282 27 14 1604 50007 13945 70% 23 289284 988 19%
c - 64.24 283 27 15 1604 52666 8661 70% 23 289284 988 19%
c O 64.86 283 26 15 1605 55021 10128 69% 23 289284 988 19%
c - 66.32 283 25 16 1609 59681 9047 69% 22 289284 988 19%
c ] 66.38 283 25 16 1609 59882 9175 69% 22 289284 988 19%
c 1 66.38 283 25 16 1609 59882 9175 69% 22 289284 988 19%
c 
c --- [ writing output ] -----------------------------------------------------
c 
c writing simplified CNF to DIMACS file 'simp/12.cubes1538.adj.simp2'
c 
c  seconds   reductions     redundant   irredundant
c          MB     restarts         trail       variables
c           level      conflicts       glue        remaining
c 
c * 66.38 283 25 16 1609 59882 9175 69% 22 289284 988 19%
c opening file to write 'simp/12.cubes1538.adj.simp2'
c writing 'p cnf 5320 289284' header
c closing file 'simp/12.cubes1538.adj.simp2'
c after writing 125030640 bytes 119.2 MB
c wrote 289284 clauses in 0.91 seconds process time
c 
c --- [ writing extension ] --------------------------------------------------
c 
c writing extension stack to 'simp/12.cubes1538.adj.ext2'
c opening file to write 'simp/12.cubes1538.adj.ext2'
c closing file 'simp/12.cubes1538.adj.ext2'
c after writing 162069 bytes 0.2 MB
c wrote 6587 witnesses in 0.00 seconds process time
c 
c --- [ result ] -------------------------------------------------------------
c 
s SATISFIABLE
c 
c --- [ run-time profiling ] -------------------------------------------------
c 
c process time taken by individual solving procedures
c (percentage relative to process time for solving)
c 
c        51.17   79.00% search
c        33.21   51.26% unstable
c        17.07   26.35% stable
c        13.60   21.00% simplify
c         5.81    8.96% vivify
c         3.64    5.62% elim
c         2.96    4.58% probe
c         1.60    2.47% parse
c         0.78    1.21% walk
c         0.52    0.80% subsume
c         0.15    0.24% ternary
c         0.12    0.18% lucky
c   =================================
c        64.78   96.26% solve
c 
c last line shows process time for solving
c (percentage relative to total process time)
c 
c --- [ statistics ] ---------------------------------------------------------
c 
c chronological:             10278        17.16 %  of conflicts
c conflicts:                 59882       924.46    per second
c decisions:                158997      2454.60    per second
c eliminated:                 2898        54.47 %  of all variables
c fixed:                        10         0.19 %  of all variables
c learned:                   58667        97.97 %  per conflict
c learned_lits:           11985986       100.00 %  learned literals
c minimized:                     0         0.00 %  learned literals
c shrunken:                6582737        54.92 %  learned literals
c minishrunken:            1307319        10.91 %  learned literals
c propagations:            6105902         0.09 M  per second
c reduced:                   32003        53.44 %  per conflict
c rephased:                     10      5988.20    interval
c restarts:                   1609        37.22    interval
c stabilizing:                   3        64.93 %  of conflicts
c substituted:                   1         0.02 %  of all variables
c subsumed:                  20590         2.75 %  of all clauses
c strengthened:              11206         1.50 %  of all clauses
c ternary:                    3793         0.57 %  of resolved
c vivified:                    231         0.03 %  of all clauses
c walked:                        2     29941.00    interval
c weakened:                   6577         3.08    average size
c 
c seconds are measured in process time for solving
c 
c --- [ resources ] ----------------------------------------------------------
c 
c total process time since initialization:        67.29    seconds
c total real time since initialization:           67.35    seconds
c maximum resident set size of process:          459.22    MB
c 
c --- [ shutting down ] ------------------------------------------------------
c 
c exit 10
WARNING! DIMACS header mismatch: wrong number of variables.
============================[ Problem Statistics ]=============================
|                                                                             |
|  Number of variables:          3948                                         |
|  Number of clauses:          289288                                         |
|  Parse time:                   1.68 s                                       |
|  Simplification time:          0.03 s                                       |
|                                                                             |
============================[ Search Statistics ]====================================================
| Conflicts |          ORIGINAL         |          LEARNT          | Num Sols |      SUBGRAPHS      |
|           |    Vars  Clauses Literals |    Limit  Clauses Lit/Cl |          | Canonical Noncanon. |
=====================================================================================================
|       100 |    3874   289288 28117519 |     2000      100    116 |        0 |        15         0 |
|       336 |    3874   289374 28119173 |     2000      336     86 |        0 |        41        86 |
|       566 |    3874   289379 28119398 |     2000      566     99 |        0 |        51        91 |
|       910 |    3874   289386 28119560 |     2000      910     89 |        0 |        79        98 |
|      1426 |    3874   289396 28119859 |     2000     1426     94 |        0 |        93       108 |
|      2365 |    3874   289576 28122514 |     3601     1366     48 |        0 |       137       288 |
|      3623 |    3874   289695 28125831 |     3601     2624     72 |        0 |       208       407 |
|      5386 |    3874   289750 28127222 |     5003     2589     50 |        0 |       268       462 |
|      7980 |    3874   289782 28128273 |     6309     2689     39 |        0 |       323       494 |
|     11908 |    3874   289866 28130177 |     7558     3466     47 |        0 |       388       578 |
|     18651 |    3874   290843 28150996 |     8780     6431     53 |        0 |       673      1555 |
|     29316 |    3874   292859 28184259 |    11202     7718     45 |        0 |      1176      3571 |
|     46798 |    3874   297367 28283238 |    13613    13411     57 |        0 |      1566      8079 |
|     66829 |    3874   297937 28295882 |    17215    11244     51 |        0 |      1805      8649 |
|     97150 |    3874   299066 28315806 |    20806    13956     51 |        0 |      2017      9778 |
|    143387 |    3874   301514 28358294 |    25609    14996     40 |        0 |      2382     12226 |
|    216186 |    3874   308629 28473748 |    31615    17801     43 |        0 |      3003     19341 |
|    314901 |    3874   308818 28477774 |    37613    31514     70 |        0 |      3101     19530 |
|    463473 |    3874   309601 28492929 |    46014    35887     67 |        0 |      3438     20313 |
|    690901 |    3874   315346 28579716 |    56824    34725     56 |        0 |      4364     26058 |
|   1025143 |    3874   317063 28620655 |    68822    57965     80 |        0 |      4772     27775 |
|   1527597 |    3874   320729 28707309 |    84416    66413     77 |        0 |      6013     31441 |
|   2282999 |    3874   327949 28880269 |   103625    74624     68 |        0 |      8345     38661 |
|   3412510 |    3874   335186 29049724 |   126412   117322     75 |        0 |     10788     45898 |
|   5103261 |    3874   342526 29218300 |   155209   125670     78 |        0 |     13692     53238 |
|   7710872 |    3839   264148 21958209 |   190052   143124     71 |        0 |     23585    135733 |
=====================================================================================================
Number of solutions   : 0
Canonical subgraphs   : 29768          (68 /sec)
          order  3    : 1              (200000 /sec)
          order  4    : 1              (500000 /sec)
          order  5    : 1              (250000 /sec)
          order  6    : 1              (55556 /sec)
          order  7    : 2              (10471 /sec)
          order  8    : 6              (2592 /sec)
          order  9    : 18             (680 /sec)
          order 10    : 87             (249 /sec)
          order 11    : 398            (75 /sec)
          order 12    : 1985           (81 /sec)
          order 13    : 9070           (95 /sec)
          order 14    : 14325          (67 /sec)
          order 15    : 3239           (42 /sec)
          order 16    : 531            (32 /sec)
          order 17    : 79             (29 /sec)
          order 18    : 10             (32 /sec)
          order 19    : 7              (28 /sec)
          order 20    : 7              (27 /sec)
          order 21    : 0              (-nan /sec)
Noncanonical subgraphs: 203447         (663 /sec)
          order  3    : 0              (-nan /sec)
          order  4    : 0              (-nan /sec)
          order  5    : 0              (-nan /sec)
          order  6    : 0              (-nan /sec)
          order  7    : 0              (-nan /sec)
          order  8    : 0              (-nan /sec)
          order  9    : 0              (-nan /sec)
          order 10    : 0              (-nan /sec)
          order 11    : 0              (-nan /sec)
          order 12    : 0              (-nan /sec)
          order 13    : 33782          (3176 /sec)
          order 14    : 76502          (1114 /sec)
          order 15    : 89353          (424 /sec)
          order 16    : 3614           (236 /sec)
          order 17    : 187            (167 /sec)
          order 18    : 2              (69 /sec)
          order 19    : 0              (-nan /sec)
          order 20    : 0              (-nan /sec)
Canonicity checking   : 436.707 s
Noncanonicity checking: 306.985 s
Total canonicity time : 743.692 s
database reductions   : 188
restarts              : 16383
conflicts             : 10971558       (2401 /sec)
decisions             : 13686897       (0.00 % random) (2995 /sec)
propagations          : 528642073      (115673 /sec)
conflict literals     : 1240333844     (55.64 % deleted)
actual reward         : 0.246299
Memory used           : 478.00 MB
CPU time              : 4570.13 s

UNSATISFIABLE
